
******************************************************************************
This program contains Ipopt, a library for large-scale nonlinear optimization.
 Ipopt is released as open source code under the Eclipse Public License (EPL).
         For more information visit http://projects.coin-or.org/Ipopt
******************************************************************************

This is Ipopt version 3.12.6, running with linear solver ma57.

Number of nonzeros in equality constraint Jacobian...:        0
Number of nonzeros in inequality constraint Jacobian.:        0
Number of nonzeros in Lagrangian Hessian.............:       55

Total number of variables............................:       10
                     variables with only lower bounds:        0
                variables with lower and upper bounds:       10
                     variables with only upper bounds:        0
Total number of equality constraints.................:        0
Total number of inequality constraints...............:        0
        inequality constraints with only lower bounds:        0
   inequality constraints with lower and upper bounds:        0
        inequality constraints with only upper bounds:        0

iter    objective    inf_pr   inf_du lg(mu)  ||d||  lg(rg) alpha_du alpha_pr  ls
   0 -4.3134342e+01 0.00e+00 1.24e+00  -1.0 0.00e+00    -  0.00e+00 0.00e+00   0
   1 -4.5696158e+01 0.00e+00 8.67e-01  -1.0 3.99e-01    -  9.49e-01 1.00e+00f  1
   2 -4.5777401e+01 0.00e+00 4.02e-02  -1.7 4.27e-02    -  9.83e-01 1.00e+00f  1
   3 -4.5778467e+01 0.00e+00 5.57e-04  -2.5 6.23e-03    -  1.00e+00 1.00e+00f  1
   4 -4.5778475e+01 0.00e+00 3.35e-06  -3.8 4.88e-04    -  1.00e+00 1.00e+00f  1
   5 -4.5778476e+01 0.00e+00 1.43e-08  -5.7 3.19e-05    -  1.00e+00 1.00e+00f  1
   6 -4.5778476e+01 0.00e+00 2.19e-12  -8.6 3.95e-07    -  1.00e+00 1.00e+00f  1

Number of Iterations....: 6

                                   (scaled)                 (unscaled)
Objective...............:  -4.5778475531886798e+01   -4.5778475531886798e+01
Dual infeasibility......:   2.1916681789297916e-12    2.1916681789297916e-12
Constraint violation....:   0.0000000000000000e+00    0.0000000000000000e+00
Complementarity.........:   2.5070306395161371e-09    2.5070306395161371e-09
Overall NLP error.......:   2.5070306395161371e-09    2.5070306395161371e-09


Number of objective function evaluations             = 7
Number of objective gradient evaluations             = 7
Number of equality constraint evaluations            = 0
Number of inequality constraint evaluations          = 0
Number of equality constraint Jacobian evaluations   = 0
Number of inequality constraint Jacobian evaluations = 0
Number of Lagrangian Hessian evaluations             = 6
Total CPU secs in IPOPT (w/o function evaluations)   =      0.007
Total CPU secs in NLP function evaluations           =      0.000

EXIT: Optimal Solution Found.
Note: The following floating-point exceptions are signalling: IEEE_INVALID_FLAG IEEE_DIVIDE_BY_ZERO

 ** SUBROUTINE CUTEST_csetup: Warning. The problem has no general constraints. 
 ** Other tools may be preferable ** 

************************ CUTEst statistics ************************


 Package used            :  IPOPT
 Problem                 :  HS110     
 # variables             =              10
 # constraints           =               0
 # objective functions   =        0.1500000E+02
 # objective gradients   =        0.8000000E+01
 # objective Hessians    =        0.7000000E+01
 # Hessian-vector prdct  =        0.0000000E+00
 # constraints functions =        0.0000000E+00
 # constraints gradients =        0.0000000E+00
 # constraints Hessians  =        0.0000000E+00
 Exit code               =               0
 Final f                 =  -0.4577848E+02
 Set up time             =            0.00 seconds
 Solve time              =            0.01 seconds


******************************************************************

System Time =       0.0030000000 s.
